size = 20;
tiles = 5;
expressions = [
    "( ([2 3 4 5 6]* 1{2} [2 3 4 5 6]{18} [2 3 4 5 6] 1{2} [2 3 4 5 6]{18} [2 3 4 5 6] 1{3} [2 3 4 5 6]{17} [2 3 4 5 6] 1{5} [2 3 4 5 6]{15} [2 3 4 5 6] 1{5} [2 3 4 5 6]{15} [2 3 4 5 6] 1{5} [2 3 4 5 6]{15} [2 3 4 5 6] [2 3 4 5 6]{2} 1{3}  [2 3 4 5 6]*) | ([2 3 4 5 6]* 1{6} [2 3 4 5 6]{10} [2 3 4 5 6] [2 3 4 5 6]{4} 1{6} [2 3 4 5 6]{10} [2 3 4 5 6] [2 3 4 5 6]{3} 1{5} [2 3 4 5 6]{12} [2 3 4 5 6] [2 3 4 5 6]{3} 1{4} [2 3 4 5 6]{13} [2 3 4 5 6] [2 3 4 5 6]{3} 1{4}  [2 3 4 5 6]*) | ([2 3 4 5 6]* 1{3} [2 3 4 5 6]{2} [2 3 4 5 6] [2 3 4 5 6]{15} 1{5} [2 3 4 5 6] [2 3 4 5 6]{15} 1{5} [2 3 4 5 6] [2 3 4 5 6]{15} 1{5} [2 3 4 5 6] [2 3 4 5 6]{17} 1{3} [2 3 4 5 6] [2 3 4 5 6]{18} 1{2} [2 3 4 5 6] [2 3 4 5 6]{18} 1{2}  [2 3 4 5 6]*) | ([2 3 4 5 6]* 1{4} [2 3 4 5 6]{3} [2 3 4 5 6] [2 3 4 5 6]{13} 1{4} [2 3 4 5 6]{3} [2 3 4 5 6] [2 3 4 5 6]{12} 1{5} [2 3 4 5 6]{3} [2 3 4 5 6] [2 3 4 5 6]{10} 1{6} [2 3 4 5 6]{4} [2 3 4 5 6] [2 3 4 5 6]{10} 1{6}  [2 3 4 5 6]*) | ([2 3 4 5 6]* 1{2} [2 3 4 5 6] [2 3 4 5 6]{18} 1{2} [2 3 4 5 6] [2 3 4 5 6]{17} 1{3} [2 3 4 5 6] [2 3 4 5 6]{15} 1{5} [2 3 4 5 6] [2 3 4 5 6]{15} 1{5} [2 3 4 5 6] [2 3 4 5 6]{15} 1{5} [2 3 4 5 6] [2 3 4 5 6]{15} 1{3}  [2 3 4 5 6]*) | ([2 3 4 5 6]* 1{6} [2 3 4 5 6]{4} [2 3 4 5 6] [2 3 4 5 6]{10} 1{6} [2 3 4 5 6]{4} [2 3 4 5 6] [2 3 4 5 6]{12} 1{5} [2 3 4 5 6]{3} [2 3 4 5 6] [2 3 4 5 6]{13} 1{4} [2 3 4 5 6]{3} [2 3 4 5 6] [2 3 4 5 6]{13} 1{4}  [2 3 4 5 6]*) | ([2 3 4 5 6]* 1{3} [2 3 4 5 6]{15} [2 3 4 5 6] 1{5} [2 3 4 5 6]{15} [2 3 4 5 6] 1{5} [2 3 4 5 6]{15} [2 3 4 5 6] 1{5} [2 3 4 5 6]{15} [2 3 4 5 6] 1{3} [2 3 4 5 6]{17} [2 3 4 5 6] 1{2} [2 3 4 5 6]{18} [2 3 4 5 6] 1{2}  [2 3 4 5 6]*) | ([2 3 4 5 6]* 1{4} [2 3 4 5 6]{13} [2 3 4 5 6] [2 3 4 5 6]{3} 1{4} [2 3 4 5 6]{13} [2 3 4 5 6] [2 3 4 5 6]{3} 1{5} [2 3 4 5 6]{12} [2 3 4 5 6] [2 3 4 5 6]{4} 1{6} [2 3 4 5 6]{10} [2 3 4 5 6] [2 3 4 5 6]{4} 1{6}  [2 3 4 5 6]*) )",
    "( ([1 3 4 5 6]* 2{17} [1 3 4 5 6] [1 3 4 5 6]{3} 2{17} [1 3 4 5 6] [1 3 4 5 6]{5} 2{15} [1 3 4 5 6] [1 3 4 5 6]{6} 2{14} [1 3 4 5 6] [1 3 4 5 6]{6} 2{14} [1 3 4 5 6] [1 3 4 5 6]{6} 2{13} [1 3 4 5 6]{1} [1 3 4 5 6] [1 3 4 5 6]{7} 2{12} [1 3 4 5 6]{1} [1 3 4 5 6] [1 3 4 5 6]{7} 2{11} [1 3 4 5 6]{2} [1 3 4 5 6] [1 3 4 5 6]{7} 2{10} [1 3 4 5 6]{3} [1 3 4 5 6] [1 3 4 5 6]{10} 2{7} [1 3 4 5 6]{3} [1 3 4 5 6] [1 3 4 5 6]{10} 2{7} [1 3 4 5 6]{3} [1 3 4 5 6] [1 3 4 5 6]{10} 2{2}  [1 3 4 5 6]*) | ([1 3 4 5 6]* 2{2} [1 3 4 5 6] [1 3 4 5 6]{18} 2{2} [1 3 4 5 6] [1 3 4 5 6]{17} 2{3} [1 3 4 5 6] [1 3 4 5 6]{14} 2{6} [1 3 4 5 6] [1 3 4 5 6]{11} 2{9} [1 3 4 5 6] [1 3 4 5 6]{11} 2{9} [1 3 4 5 6] [1 3 4 5 6]{11} 2{9} [1 3 4 5 6] [1 3 4 5 6]{8} 2{12} [1 3 4 5 6] [1 3 4 5 6]{8} 2{12} [1 3 4 5 6] [1 3 4 5 6]{9} 2{11} [1 3 4 5 6] [1 3 4 5 6]{9} 2{11} [1 3 4 5 6] [1 3 4 5 6]{9} 2{11} [1 3 4 5 6] [1 3 4 5 6]{9} 2{11} [1 3 4 5 6] [1 3 4 5 6]{9} 2{11} [1 3 4 5 6] [1 3 4 5 6]{12} 2{8} [1 3 4 5 6] [1 3 4 5 6]{13} 2{7} [1 3 4 5 6] [1 3 4 5 6]{15} 2{5}  [1 3 4 5 6]*) | ([1 3 4 5 6]* 2{2} [1 3 4 5 6]{10} [1 3 4 5 6] [1 3 4 5 6]{3} 2{7} [1 3 4 5 6]{10} [1 3 4 5 6] [1 3 4 5 6]{3} 2{7} [1 3 4 5 6]{10} [1 3 4 5 6] [1 3 4 5 6]{3} 2{10} [1 3 4 5 6]{7} [1 3 4 5 6] [1 3 4 5 6]{2} 2{11} [1 3 4 5 6]{7} [1 3 4 5 6] [1 3 4 5 6]{1} 2{12} [1 3 4 5 6]{7} [1 3 4 5 6] [1 3 4 5 6]{1} 2{13} [1 3 4 5 6]{6} [1 3 4 5 6] 2{14} [1 3 4 5 6]{6} [1 3 4 5 6] 2{14} [1 3 4 5 6]{6} [1 3 4 5 6] 2{15} [1 3 4 5 6]{5} [1 3 4 5 6] 2{17} [1 3 4 5 6]{3} [1 3 4 5 6] 2{17}  [1 3 4 5 6]*) | ([1 3 4 5 6]* 2{5} [1 3 4 5 6]{15} [1 3 4 5 6] 2{7} [1 3 4 5 6]{13} [1 3 4 5 6] 2{8} [1 3 4 5 6]{12} [1 3 4 5 6] 2{11} [1 3 4 5 6]{9} [1 3 4 5 6] 2{11} [1 3 4 5 6]{9} [1 3 4 5 6] 2{11} [1 3 4 5 6]{9} [1 3 4 5 6] 2{11} [1 3 4 5 6]{9} [1 3 4 5 6] 2{11} [1 3 4 5 6]{9} [1 3 4 5 6] 2{12} [1 3 4 5 6]{8} [1 3 4 5 6] 2{12} [1 3 4 5 6]{8} [1 3 4 5 6] 2{9} [1 3 4 5 6]{11} [1 3 4 5 6] 2{9} [1 3 4 5 6]{11} [1 3 4 5 6] 2{9} [1 3 4 5 6]{11} [1 3 4 5 6] 2{6} [1 3 4 5 6]{14} [1 3 4 5 6] 2{3} [1 3 4 5 6]{17} [1 3 4 5 6] 2{2} [1 3 4 5 6]{18} [1 3 4 5 6] 2{2}  [1 3 4 5 6]*) | ([1 3 4 5 6]* 2{17} [1 3 4 5 6]{3} [1 3 4 5 6] 2{17} [1 3 4 5 6]{3} [1 3 4 5 6] 2{15} [1 3 4 5 6]{5} [1 3 4 5 6] 2{14} [1 3 4 5 6]{6} [1 3 4 5 6] 2{14} [1 3 4 5 6]{6} [1 3 4 5 6] [1 3 4 5 6]{1} 2{13} [1 3 4 5 6]{6} [1 3 4 5 6] [1 3 4 5 6]{1} 2{12} [1 3 4 5 6]{7} [1 3 4 5 6] [1 3 4 5 6]{2} 2{11} [1 3 4 5 6]{7} [1 3 4 5 6] [1 3 4 5 6]{3} 2{10} [1 3 4 5 6]{7} [1 3 4 5 6] [1 3 4 5 6]{3} 2{7} [1 3 4 5 6]{10} [1 3 4 5 6] [1 3 4 5 6]{3} 2{7} [1 3 4 5 6]{10} [1 3 4 5 6] [1 3 4 5 6]{8} 2{2}  [1 3 4 5 6]*) | ([1 3 4 5 6]* 2{2} [1 3 4 5 6]{18} [1 3 4 5 6] 2{2} [1 3 4 5 6]{18} [1 3 4 5 6] 2{3} [1 3 4 5 6]{17} [1 3 4 5 6] 2{6} [1 3 4 5 6]{14} [1 3 4 5 6] 2{9} [1 3 4 5 6]{11} [1 3 4 5 6] 2{9} [1 3 4 5 6]{11} [1 3 4 5 6] 2{9} [1 3 4 5 6]{11} [1 3 4 5 6] 2{12} [1 3 4 5 6]{8} [1 3 4 5 6] 2{12} [1 3 4 5 6]{8} [1 3 4 5 6] 2{11} [1 3 4 5 6]{9} [1 3 4 5 6] 2{11} [1 3 4 5 6]{9} [1 3 4 5 6] 2{11} [1 3 4 5 6]{9} [1 3 4 5 6] 2{11} [1 3 4 5 6]{9} [1 3 4 5 6] 2{11} [1 3 4 5 6]{9} [1 3 4 5 6] 2{8} [1 3 4 5 6]{12} [1 3 4 5 6] 2{7} [1 3 4 5 6]{13} [1 3 4 5 6] 2{5}  [1 3 4 5 6]*) | ([1 3 4 5 6]* 2{2} [1 3 4 5 6]{8} [1 3 4 5 6] [1 3 4 5 6]{10} 2{7} [1 3 4 5 6]{3} [1 3 4 5 6] [1 3 4 5 6]{10} 2{7} [1 3 4 5 6]{3} [1 3 4 5 6] [1 3 4 5 6]{7} 2{10} [1 3 4 5 6]{3} [1 3 4 5 6] [1 3 4 5 6]{7} 2{11} [1 3 4 5 6]{2} [1 3 4 5 6] [1 3 4 5 6]{7} 2{12} [1 3 4 5 6]{1} [1 3 4 5 6] [1 3 4 5 6]{6} 2{13} [1 3 4 5 6]{1} [1 3 4 5 6] [1 3 4 5 6]{6} 2{14} [1 3 4 5 6] [1 3 4 5 6]{6} 2{14} [1 3 4 5 6] [1 3 4 5 6]{5} 2{15} [1 3 4 5 6] [1 3 4 5 6]{3} 2{17} [1 3 4 5 6] [1 3 4 5 6]{3} 2{17}  [1 3 4 5 6]*) | ([1 3 4 5 6]* 2{5} [1 3 4 5 6] [1 3 4 5 6]{13} 2{7} [1 3 4 5 6] [1 3 4 5 6]{12} 2{8} [1 3 4 5 6] [1 3 4 5 6]{9} 2{11} [1 3 4 5 6] [1 3 4 5 6]{9} 2{11} [1 3 4 5 6] [1 3 4 5 6]{9} 2{11} [1 3 4 5 6] [1 3 4 5 6]{9} 2{11} [1 3 4 5 6] [1 3 4 5 6]{9} 2{11} [1 3 4 5 6] [1 3 4 5 6]{8} 2{12} [1 3 4 5 6] [1 3 4 5 6]{8} 2{12} [1 3 4 5 6] [1 3 4 5 6]{11} 2{9} [1 3 4 5 6] [1 3 4 5 6]{11} 2{9} [1 3 4 5 6] [1 3 4 5 6]{11} 2{9} [1 3 4 5 6] [1 3 4 5 6]{14} 2{6} [1 3 4 5 6] [1 3 4 5 6]{17} 2{3} [1 3 4 5 6] [1 3 4 5 6]{18} 2{2} [1 3 4 5 6] [1 3 4 5 6]{18} 2{2}  [1 3 4 5 6]*) )",
    "( ([1 2 4 5 6]* 3{2} [1 2 4 5 6]{18} [1 2 4 5 6] 3{8} [1 2 4 5 6]{12} [1 2 4 5 6] 3{10} [1 2 4 5 6]{10} [1 2 4 5 6] 3{10}  [1 2 4 5 6]*) | ([1 2 4 5 6]* 3{4} [1 2 4 5 6]{16} [1 2 4 5 6] 3{4} [1 2 4 5 6]{16} [1 2 4 5 6] 3{3} [1 2 4 5 6]{17} [1 2 4 5 6] 3{3} [1 2 4 5 6]{17} [1 2 4 5 6] 3{3} [1 2 4 5 6]{17} [1 2 4 5 6] 3{3} [1 2 4 5 6]{17} [1 2 4 5 6] 3{3} [1 2 4 5 6]{17} [1 2 4 5 6] 3{3} [1 2 4 5 6]{17} [1 2 4 5 6] 3{2} [1 2 4 5 6]{18} [1 2 4 5 6] 3{2}  [1 2 4 5 6]*) | ([1 2 4 5 6]* 3{10} [1 2 4 5 6] [1 2 4 5 6]{10} 3{10} [1 2 4 5 6] [1 2 4 5 6]{12} 3{8} [1 2 4 5 6] [1 2 4 5 6]{18} 3{2}  [1 2 4 5 6]*) | ([1 2 4 5 6]* 3{2} [1 2 4 5 6] [1 2 4 5 6]{18} 3{2} [1 2 4 5 6] [1 2 4 5 6]{17} 3{3} [1 2 4 5 6] [1 2 4 5 6]{17} 3{3} [1 2 4 5 6] [1 2 4 5 6]{17} 3{3} [1 2 4 5 6] [1 2 4 5 6]{17} 3{3} [1 2 4 5 6] [1 2 4 5 6]{17} 3{3} [1 2 4 5 6] [1 2 4 5 6]{17} 3{3} [1 2 4 5 6] [1 2 4 5 6]{16} 3{4} [1 2 4 5 6] [1 2 4 5 6]{16} 3{4}  [1 2 4 5 6]*) | ([1 2 4 5 6]* 3{2} [1 2 4 5 6] [1 2 4 5 6]{12} 3{8} [1 2 4 5 6] [1 2 4 5 6]{10} 3{10} [1 2 4 5 6] [1 2 4 5 6]{10} 3{10}  [1 2 4 5 6]*) | ([1 2 4 5 6]* 3{4} [1 2 4 5 6] [1 2 4 5 6]{16} 3{4} [1 2 4 5 6] [1 2 4 5 6]{17} 3{3} [1 2 4 5 6] [1 2 4 5 6]{17} 3{3} [1 2 4 5 6] [1 2 4 5 6]{17} 3{3} [1 2 4 5 6] [1 2 4 5 6]{17} 3{3} [1 2 4 5 6] [1 2 4 5 6]{17} 3{3} [1 2 4 5 6] [1 2 4 5 6]{17} 3{3} [1 2 4 5 6] [1 2 4 5 6]{18} 3{2} [1 2 4 5 6] [1 2 4 5 6]{18} 3{2}  [1 2 4 5 6]*) | ([1 2 4 5 6]* 3{10} [1 2 4 5 6]{10} [1 2 4 5 6] 3{10} [1 2 4 5 6]{10} [1 2 4 5 6] 3{8} [1 2 4 5 6]{12} [1 2 4 5 6] 3{2}  [1 2 4 5 6]*) | ([1 2 4 5 6]* 3{2} [1 2 4 5 6]{18} [1 2 4 5 6] 3{2} [1 2 4 5 6]{18} [1 2 4 5 6] 3{3} [1 2 4 5 6]{17} [1 2 4 5 6] 3{3} [1 2 4 5 6]{17} [1 2 4 5 6] 3{3} [1 2 4 5 6]{17} [1 2 4 5 6] 3{3} [1 2 4 5 6]{17} [1 2 4 5 6] 3{3} [1 2 4 5 6]{17} [1 2 4 5 6] 3{3} [1 2 4 5 6]{17} [1 2 4 5 6] 3{4} [1 2 4 5 6]{16} [1 2 4 5 6] 3{4}  [1 2 4 5 6]*) )",
    "( ([1 2 3 5 6]* 4{3} [1 2 3 5 6]{17} [1 2 3 5 6] 4{3} [1 2 3 5 6]{17} [1 2 3 5 6] 4{5} [1 2 3 5 6]{15} [1 2 3 5 6] 4{6} [1 2 3 5 6]{14} [1 2 3 5 6] 4{6} [1 2 3 5 6]{14} [1 2 3 5 6] 4{6} [1 2 3 5 6]{14} [1 2 3 5 6] 4{7} [1 2 3 5 6]{13} [1 2 3 5 6] 4{7} [1 2 3 5 6]{13} [1 2 3 5 6] 4{7} [1 2 3 5 6]{13} [1 2 3 5 6] 4{10} [1 2 3 5 6]{10} [1 2 3 5 6] [1 2 3 5 6]{2} 4{8} [1 2 3 5 6]{10} [1 2 3 5 6] [1 2 3 5 6]{2} 4{8} [1 2 3 5 6]{10} [1 2 3 5 6] [1 2 3 5 6]{3} 4{8} [1 2 3 5 6]{9} [1 2 3 5 6] [1 2 3 5 6]{5} 4{5} [1 2 3 5 6]{10} [1 2 3 5 6] [1 2 3 5 6]{5} 4{5} [1 2 3 5 6]{10} [1 2 3 5 6] [1 2 3 5 6]{5} 4{5} [1 2 3 5 6]{10} [1 2 3 5 6] [1 2 3 5 6]{5} 4{5} [1 2 3 5 6]{10} [1 2 3 5 6] [1 2 3 5 6]{8} 4{2}  [1 2 3 5 6]*) | ([1 2 3 5 6]* 4{10} [1 2 3 5 6] [1 2 3 5 6]{10} 4{10} [1 2 3 5 6] [1 2 3 5 6]{8} 4{12} [1 2 3 5 6] [1 2 3 5 6]{7} 4{11} [1 2 3 5 6]{2} [1 2 3 5 6] [1 2 3 5 6]{7} 4{11} [1 2 3 5 6]{2} [1 2 3 5 6] [1 2 3 5 6]{3} 4{14} [1 2 3 5 6]{3} [1 2 3 5 6] [1 2 3 5 6]{3} 4{11} [1 2 3 5 6]{6} [1 2 3 5 6] [1 2 3 5 6]{3} 4{8} [1 2 3 5 6]{9} [1 2 3 5 6] [1 2 3 5 6]{2} 4{9} [1 2 3 5 6]{9} [1 2 3 5 6] [1 2 3 5 6]{2} 4{9} [1 2 3 5 6]{9} [1 2 3 5 6] [1 2 3 5 6]{7} 4{1}  [1 2 3 5 6]*) | ([1 2 3 5 6]* 4{2} [1 2 3 5 6]{8} [1 2 3 5 6] [1 2 3 5 6]{10} 4{5} [1 2 3 5 6]{5} [1 2 3 5 6] [1 2 3 5 6]{10} 4{5} [1 2 3 5 6]{5} [1 2 3 5 6] [1 2 3 5 6]{10} 4{5} [1 2 3 5 6]{5} [1 2 3 5 6] [1 2 3 5 6]{10} 4{5} [1 2 3 5 6]{5} [1 2 3 5 6] [1 2 3 5 6]{9} 4{8} [1 2 3 5 6]{3} [1 2 3 5 6] [1 2 3 5 6]{10} 4{8} [1 2 3 5 6]{2} [1 2 3 5 6] [1 2 3 5 6]{10} 4{8} [1 2 3 5 6]{2} [1 2 3 5 6] [1 2 3 5 6]{10} 4{10} [1 2 3 5 6] [1 2 3 5 6]{13} 4{7} [1 2 3 5 6] [1 2 3 5 6]{13} 4{7} [1 2 3 5 6] [1 2 3 5 6]{13} 4{7} [1 2 3 5 6] [1 2 3 5 6]{14} 4{6} [1 2 3 5 6] [1 2 3 5 6]{14} 4{6} [1 2 3 5 6] [1 2 3 5 6]{14} 4{6} [1 2 3 5 6] [1 2 3 5 6]{15} 4{5} [1 2 3 5 6] [1 2 3 5 6]{17} 4{3} [1 2 3 5 6] [1 2 3 5 6]{17} 4{3}  [1 2 3 5 6]*) | ([1 2 3 5 6]* 4{1} [1 2 3 5 6]{7} [1 2 3 5 6] [1 2 3 5 6]{9} 4{9} [1 2 3 5 6]{2} [1 2 3 5 6] [1 2 3 5 6]{9} 4{9} [1 2 3 5 6]{2} [1 2 3 5 6] [1 2 3 5 6]{9} 4{8} [1 2 3 5 6]{3} [1 2 3 5 6] [1 2 3 5 6]{6} 4{11} [1 2 3 5 6]{3} [1 2 3 5 6] [1 2 3 5 6]{3} 4{14} [1 2 3 5 6]{3} [1 2 3 5 6] [1 2 3 5 6]{2} 4{11} [1 2 3 5 6]{7} [1 2 3 5 6] [1 2 3 5 6]{2} 4{11} [1 2 3 5 6]{7} [1 2 3 5 6] 4{12} [1 2 3 5 6]{8} [1 2 3 5 6] 4{10} [1 2 3 5 6]{10} [1 2 3 5 6] 4{10}  [1 2 3 5 6]*) | ([1 2 3 5 6]* 4{3} [1 2 3 5 6] [1 2 3 5 6]{17} 4{3} [1 2 3 5 6] [1 2 3 5 6]{15} 4{5} [1 2 3 5 6] [1 2 3 5 6]{14} 4{6} [1 2 3 5 6] [1 2 3 5 6]{14} 4{6} [1 2 3 5 6] [1 2 3 5 6]{14} 4{6} [1 2 3 5 6] [1 2 3 5 6]{13} 4{7} [1 2 3 5 6] [1 2 3 5 6]{13} 4{7} [1 2 3 5 6] [1 2 3 5 6]{13} 4{7} [1 2 3 5 6] [1 2 3 5 6]{10} 4{10} [1 2 3 5 6] [1 2 3 5 6]{10} 4{8} [1 2 3 5 6]{2} [1 2 3 5 6] [1 2 3 5 6]{10} 4{8} [1 2 3 5 6]{2} [1 2 3 5 6] [1 2 3 5 6]{9} 4{8} [1 2 3 5 6]{3} [1 2 3 5 6] [1 2 3 5 6]{10} 4{5} [1 2 3 5 6]{5} [1 2 3 5 6] [1 2 3 5 6]{10} 4{5} [1 2 3 5 6]{5} [1 2 3 5 6] [1 2 3 5 6]{10} 4{5} [1 2 3 5 6]{5} [1 2 3 5 6] [1 2 3 5 6]{10} 4{5} [1 2 3 5 6]{5} [1 2 3 5 6] [1 2 3 5 6]{10} 4{2}  [1 2 3 5 6]*) | ([1 2 3 5 6]* 4{10} [1 2 3 5 6]{10} [1 2 3 5 6] 4{10} [1 2 3 5 6]{10} [1 2 3 5 6] 4{12} [1 2 3 5 6]{8} [1 2 3 5 6] [1 2 3 5 6]{2} 4{11} [1 2 3 5 6]{7} [1 2 3 5 6] [1 2 3 5 6]{2} 4{11} [1 2 3 5 6]{7} [1 2 3 5 6] [1 2 3 5 6]{3} 4{14} [1 2 3 5 6]{3} [1 2 3 5 6] [1 2 3 5 6]{6} 4{11} [1 2 3 5 6]{3} [1 2 3 5 6] [1 2 3 5 6]{9} 4{8} [1 2 3 5 6]{3} [1 2 3 5 6] [1 2 3 5 6]{9} 4{9} [1 2 3 5 6]{2} [1 2 3 5 6] [1 2 3 5 6]{9} 4{9} [1 2 3 5 6]{2} [1 2 3 5 6] [1 2 3 5 6]{12} 4{1}  [1 2 3 5 6]*) | ([1 2 3 5 6]* 4{2} [1 2 3 5 6]{10} [1 2 3 5 6] [1 2 3 5 6]{5} 4{5} [1 2 3 5 6]{10} [1 2 3 5 6] [1 2 3 5 6]{5} 4{5} [1 2 3 5 6]{10} [1 2 3 5 6] [1 2 3 5 6]{5} 4{5} [1 2 3 5 6]{10} [1 2 3 5 6] [1 2 3 5 6]{5} 4{5} [1 2 3 5 6]{10} [1 2 3 5 6] [1 2 3 5 6]{3} 4{8} [1 2 3 5 6]{9} [1 2 3 5 6] [1 2 3 5 6]{2} 4{8} [1 2 3 5 6]{10} [1 2 3 5 6] [1 2 3 5 6]{2} 4{8} [1 2 3 5 6]{10} [1 2 3 5 6] 4{10} [1 2 3 5 6]{10} [1 2 3 5 6] 4{7} [1 2 3 5 6]{13} [1 2 3 5 6] 4{7} [1 2 3 5 6]{13} [1 2 3 5 6] 4{7} [1 2 3 5 6]{13} [1 2 3 5 6] 4{6} [1 2 3 5 6]{14} [1 2 3 5 6] 4{6} [1 2 3 5 6]{14} [1 2 3 5 6] 4{6} [1 2 3 5 6]{14} [1 2 3 5 6] 4{5} [1 2 3 5 6]{15} [1 2 3 5 6] 4{3} [1 2 3 5 6]{17} [1 2 3 5 6] 4{3}  [1 2 3 5 6]*) | ([1 2 3 5 6]* 4{1} [1 2 3 5 6]{12} [1 2 3 5 6] [1 2 3 5 6]{2} 4{9} [1 2 3 5 6]{9} [1 2 3 5 6] [1 2 3 5 6]{2} 4{9} [1 2 3 5 6]{9} [1 2 3 5 6] [1 2 3 5 6]{3} 4{8} [1 2 3 5 6]{9} [1 2 3 5 6] [1 2 3 5 6]{3} 4{11} [1 2 3 5 6]{6} [1 2 3 5 6] [1 2 3 5 6]{3} 4{14} [1 2 3 5 6]{3} [1 2 3 5 6] [1 2 3 5 6]{7} 4{11} [1 2 3 5 6]{2} [1 2 3 5 6] [1 2 3 5 6]{7} 4{11} [1 2 3 5 6]{2} [1 2 3 5 6] [1 2 3 5 6]{8} 4{12} [1 2 3 5 6] [1 2 3 5 6]{10} 4{10} [1 2 3 5 6] [1 2 3 5 6]{10} 4{10}  [1 2 3 5 6]*) )",
    "( ([1 2 3 4 6]* 5{1} [1 2 3 4 6] [1 2 3 4 6]{19} 5{1} [1 2 3 4 6] [1 2 3 4 6]{18} 5{2} [1 2 3 4 6] [1 2 3 4 6]{17} 5{3} [1 2 3 4 6] [1 2 3 4 6]{17} 5{3} [1 2 3 4 6] [1 2 3 4 6]{17} 5{3} [1 2 3 4 6] [1 2 3 4 6]{12} 5{8} [1 2 3 4 6] [1 2 3 4 6]{11} 5{9} [1 2 3 4 6] [1 2 3 4 6]{10} 5{10} [1 2 3 4 6] [1 2 3 4 6]{10} 5{10} [1 2 3 4 6] [1 2 3 4 6]{10} 5{10} [1 2 3 4 6] [1 2 3 4 6]{10} 5{10} [1 2 3 4 6] [1 2 3 4 6]{10} 5{10} [1 2 3 4 6] [1 2 3 4 6]{10} 5{10} [1 2 3 4 6] [1 2 3 4 6]{10} 5{10}  [1 2 3 4 6]*) | ([1 2 3 4 6]* 5{7} [1 2 3 4 6]{13} [1 2 3 4 6] 5{8} [1 2 3 4 6]{12} [1 2 3 4 6] 5{9} [1 2 3 4 6]{11} [1 2 3 4 6] 5{9} [1 2 3 4 6]{11} [1 2 3 4 6] 5{9} [1 2 3 4 6]{11} [1 2 3 4 6] 5{9} [1 2 3 4 6]{11} [1 2 3 4 6] 5{9} [1 2 3 4 6]{11} [1 2 3 4 6] 5{12} [1 2 3 4 6]{8} [1 2 3 4 6] 5{13} [1 2 3 4 6]{7} [1 2 3 4 6] 5{15}  [1 2 3 4 6]*) | ([1 2 3 4 6]* 5{10} [1 2 3 4 6]{10} [1 2 3 4 6] 5{10} [1 2 3 4 6]{10} [1 2 3 4 6] 5{10} [1 2 3 4 6]{10} [1 2 3 4 6] 5{10} [1 2 3 4 6]{10} [1 2 3 4 6] 5{10} [1 2 3 4 6]{10} [1 2 3 4 6] 5{10} [1 2 3 4 6]{10} [1 2 3 4 6] 5{10} [1 2 3 4 6]{10} [1 2 3 4 6] 5{9} [1 2 3 4 6]{11} [1 2 3 4 6] 5{8} [1 2 3 4 6]{12} [1 2 3 4 6] 5{3} [1 2 3 4 6]{17} [1 2 3 4 6] 5{3} [1 2 3 4 6]{17} [1 2 3 4 6] 5{3} [1 2 3 4 6]{17} [1 2 3 4 6] 5{2} [1 2 3 4 6]{18} [1 2 3 4 6] 5{1} [1 2 3 4 6]{19} [1 2 3 4 6] 5{1}  [1 2 3 4 6]*) | ([1 2 3 4 6]* 5{15} [1 2 3 4 6] [1 2 3 4 6]{7} 5{13} [1 2 3 4 6] [1 2 3 4 6]{8} 5{12} [1 2 3 4 6] [1 2 3 4 6]{11} 5{9} [1 2 3 4 6] [1 2 3 4 6]{11} 5{9} [1 2 3 4 6] [1 2 3 4 6]{11} 5{9} [1 2 3 4 6] [1 2 3 4 6]{11} 5{9} [1 2 3 4 6] [1 2 3 4 6]{11} 5{9} [1 2 3 4 6] [1 2 3 4 6]{12} 5{8} [1 2 3 4 6] [1 2 3 4 6]{13} 5{7}  [1 2 3 4 6]*) | ([1 2 3 4 6]* 5{1} [1 2 3 4 6]{19} [1 2 3 4 6] 5{1} [1 2 3 4 6]{19} [1 2 3 4 6] 5{2} [1 2 3 4 6]{18} [1 2 3 4 6] 5{3} [1 2 3 4 6]{17} [1 2 3 4 6] 5{3} [1 2 3 4 6]{17} [1 2 3 4 6] 5{3} [1 2 3 4 6]{17} [1 2 3 4 6] 5{8} [1 2 3 4 6]{12} [1 2 3 4 6] 5{9} [1 2 3 4 6]{11} [1 2 3 4 6] 5{10} [1 2 3 4 6]{10} [1 2 3 4 6] 5{10} [1 2 3 4 6]{10} [1 2 3 4 6] 5{10} [1 2 3 4 6]{10} [1 2 3 4 6] 5{10} [1 2 3 4 6]{10} [1 2 3 4 6] 5{10} [1 2 3 4 6]{10} [1 2 3 4 6] 5{10} [1 2 3 4 6]{10} [1 2 3 4 6] 5{10}  [1 2 3 4 6]*) | ([1 2 3 4 6]* 5{7} [1 2 3 4 6] [1 2 3 4 6]{12} 5{8} [1 2 3 4 6] [1 2 3 4 6]{11} 5{9} [1 2 3 4 6] [1 2 3 4 6]{11} 5{9} [1 2 3 4 6] [1 2 3 4 6]{11} 5{9} [1 2 3 4 6] [1 2 3 4 6]{11} 5{9} [1 2 3 4 6] [1 2 3 4 6]{11} 5{9} [1 2 3 4 6] [1 2 3 4 6]{8} 5{12} [1 2 3 4 6] [1 2 3 4 6]{7} 5{13} [1 2 3 4 6] [1 2 3 4 6]{5} 5{15}  [1 2 3 4 6]*) | ([1 2 3 4 6]* 5{10} [1 2 3 4 6] [1 2 3 4 6]{10} 5{10} [1 2 3 4 6] [1 2 3 4 6]{10} 5{10} [1 2 3 4 6] [1 2 3 4 6]{10} 5{10} [1 2 3 4 6] [1 2 3 4 6]{10} 5{10} [1 2 3 4 6] [1 2 3 4 6]{10} 5{10} [1 2 3 4 6] [1 2 3 4 6]{10} 5{10} [1 2 3 4 6] [1 2 3 4 6]{11} 5{9} [1 2 3 4 6] [1 2 3 4 6]{12} 5{8} [1 2 3 4 6] [1 2 3 4 6]{17} 5{3} [1 2 3 4 6] [1 2 3 4 6]{17} 5{3} [1 2 3 4 6] [1 2 3 4 6]{17} 5{3} [1 2 3 4 6] [1 2 3 4 6]{18} 5{2} [1 2 3 4 6] [1 2 3 4 6]{19} 5{1} [1 2 3 4 6] [1 2 3 4 6]{19} 5{1}  [1 2 3 4 6]*) | ([1 2 3 4 6]* 5{15} [1 2 3 4 6]{5} [1 2 3 4 6] 5{13} [1 2 3 4 6]{7} [1 2 3 4 6] 5{12} [1 2 3 4 6]{8} [1 2 3 4 6] 5{9} [1 2 3 4 6]{11} [1 2 3 4 6] 5{9} [1 2 3 4 6]{11} [1 2 3 4 6] 5{9} [1 2 3 4 6]{11} [1 2 3 4 6] 5{9} [1 2 3 4 6]{11} [1 2 3 4 6] 5{9} [1 2 3 4 6]{11} [1 2 3 4 6] 5{8} [1 2 3 4 6]{12} [1 2 3 4 6] 5{7}  [1 2 3 4 6]*) )",
];
